8679
8910
9120
9120
9120
9120
9222
9222
9222
9252
9252
9252
9252
9252
9252
9252
9252
9252
9252
9252
9255
9255
9255
9255
9255
9255
9255
9255
9255
9255
9255
9255
9255
9255
9255
9255
9255
9255
9255
9255
9255
9255
9255
9255
9255
9255
9255
9255
9255
9255
9255
9255
9255
9255
9255
9255
9255
9255
9255
9255
9255
9255
9255
9255
9255
9255
9255
9255
9255
9255
9255
9255
9255
9255
9255
9255
9255
9255
9255
9255
9255
9255
9255
9255
9255
9255
9255
9255
9255
9255
9255
9255
9255
9255
9255
9255
9255
9255
9255
